%%MatrixMarket matrix coordinate real general
600 600 2760
1 1 4.05
1 2 -1.0
2 1 -1.0
1 11 -1.0
11 1 -1.0
2 2 4.05
2 3 -1.0
3 2 -1.0
2 12 -1.0
12 2 -1.0
3 3 4.05
3 4 -1.0
4 3 -1.0
3 13 -1.0
13 3 -1.0
4 4 4.05
4 5 -1.0
5 4 -1.0
4 14 -1.0
14 4 -1.0
5 5 4.05
5 6 -1.0
6 5 -1.0
5 15 -1.0
15 5 -1.0
6 6 4.05
6 7 -1.0
7 6 -1.0
6 16 -1.0
16 6 -1.0
7 7 4.05
7 8 -1.0
8 7 -1.0
7 17 -1.0
17 7 -1.0
8 8 4.05
8 9 -1.0
9 8 -1.0
8 18 -1.0
18 8 -1.0
9 9 4.05
9 10 -1.0
10 9 -1.0
9 19 -1.0
19 9 -1.0
10 10 4.05
10 20 -1.0
20 10 -1.0
11 11 4.05
11 12 -1.0
12 11 -1.0
11 21 -1.0
21 11 -1.0
12 12 4.05
12 13 -1.0
13 12 -1.0
12 22 -1.0
22 12 -1.0
13 13 4.05
13 14 -1.0
14 13 -1.0
13 23 -1.0
23 13 -1.0
14 14 4.05
14 15 -1.0
15 14 -1.0
14 24 -1.0
24 14 -1.0
15 15 4.05
15 16 -1.0
16 15 -1.0
15 25 -1.0
25 15 -1.0
16 16 4.05
16 17 -1.0
17 16 -1.0
16 26 -1.0
26 16 -1.0
17 17 4.05
17 18 -1.0
18 17 -1.0
17 27 -1.0
27 17 -1.0
18 18 4.05
18 19 -1.0
19 18 -1.0
18 28 -1.0
28 18 -1.0
19 19 4.05
19 20 -1.0
20 19 -1.0
19 29 -1.0
29 19 -1.0
20 20 4.05
20 30 -1.0
30 20 -1.0
21 21 4.05
21 22 -1.0
22 21 -1.0
21 31 -1.0
31 21 -1.0
22 22 4.05
22 23 -1.0
23 22 -1.0
22 32 -1.0
32 22 -1.0
23 23 4.05
23 24 -1.0
24 23 -1.0
23 33 -1.0
33 23 -1.0
24 24 4.05
24 25 -1.0
25 24 -1.0
24 34 -1.0
34 24 -1.0
25 25 4.05
25 26 -1.0
26 25 -1.0
25 35 -1.0
35 25 -1.0
26 26 4.05
26 27 -1.0
27 26 -1.0
26 36 -1.0
36 26 -1.0
27 27 4.05
27 28 -1.0
28 27 -1.0
27 37 -1.0
37 27 -1.0
28 28 4.05
28 29 -1.0
29 28 -1.0
28 38 -1.0
38 28 -1.0
29 29 4.05
29 30 -1.0
30 29 -1.0
29 39 -1.0
39 29 -1.0
30 30 4.05
30 40 -1.0
40 30 -1.0
31 31 4.05
31 32 -1.0
32 31 -1.0
31 41 -1.0
41 31 -1.0
32 32 4.05
32 33 -1.0
33 32 -1.0
32 42 -1.0
42 32 -1.0
33 33 4.05
33 34 -1.0
34 33 -1.0
33 43 -1.0
43 33 -1.0
34 34 4.05
34 35 -1.0
35 34 -1.0
34 44 -1.0
44 34 -1.0
35 35 4.05
35 36 -1.0
36 35 -1.0
35 45 -1.0
45 35 -1.0
36 36 4.05
36 37 -1.0
37 36 -1.0
36 46 -1.0
46 36 -1.0
37 37 4.05
37 38 -1.0
38 37 -1.0
37 47 -1.0
47 37 -1.0
38 38 4.05
38 39 -1.0
39 38 -1.0
38 48 -1.0
48 38 -1.0
39 39 4.05
39 40 -1.0
40 39 -1.0
39 49 -1.0
49 39 -1.0
40 40 4.05
40 50 -1.0
50 40 -1.0
41 41 4.05
41 42 -1.0
42 41 -1.0
41 51 -1.0
51 41 -1.0
42 42 4.05
42 43 -1.0
43 42 -1.0
42 52 -1.0
52 42 -1.0
43 43 4.05
43 44 -1.0
44 43 -1.0
43 53 -1.0
53 43 -1.0
44 44 4.05
44 45 -1.0
45 44 -1.0
44 54 -1.0
54 44 -1.0
45 45 4.05
45 46 -1.0
46 45 -1.0
45 55 -1.0
55 45 -1.0
46 46 4.05
46 47 -1.0
47 46 -1.0
46 56 -1.0
56 46 -1.0
47 47 4.05
47 48 -1.0
48 47 -1.0
47 57 -1.0
57 47 -1.0
48 48 4.05
48 49 -1.0
49 48 -1.0
48 58 -1.0
58 48 -1.0
49 49 4.05
49 50 -1.0
50 49 -1.0
49 59 -1.0
59 49 -1.0
50 50 4.05
50 60 -1.0
60 50 -1.0
51 51 4.05
51 52 -1.0
52 51 -1.0
51 61 -1.0
61 51 -1.0
52 52 4.05
52 53 -1.0
53 52 -1.0
52 62 -1.0
62 52 -1.0
53 53 4.05
53 54 -1.0
54 53 -1.0
53 63 -1.0
63 53 -1.0
54 54 4.05
54 55 -1.0
55 54 -1.0
54 64 -1.0
64 54 -1.0
55 55 4.05
55 56 -1.0
56 55 -1.0
55 65 -1.0
65 55 -1.0
56 56 4.05
56 57 -1.0
57 56 -1.0
56 66 -1.0
66 56 -1.0
57 57 4.05
57 58 -1.0
58 57 -1.0
57 67 -1.0
67 57 -1.0
58 58 4.05
58 59 -1.0
59 58 -1.0
58 68 -1.0
68 58 -1.0
59 59 4.05
59 60 -1.0
60 59 -1.0
59 69 -1.0
69 59 -1.0
60 60 4.05
60 70 -1.0
70 60 -1.0
61 61 4.05
61 62 -1.0
62 61 -1.0
61 71 -1.0
71 61 -1.0
62 62 4.05
62 63 -1.0
63 62 -1.0
62 72 -1.0
72 62 -1.0
63 63 4.05
63 64 -1.0
64 63 -1.0
63 73 -1.0
73 63 -1.0
64 64 4.05
64 65 -1.0
65 64 -1.0
64 74 -1.0
74 64 -1.0
65 65 4.05
65 66 -1.0
66 65 -1.0
65 75 -1.0
75 65 -1.0
66 66 4.05
66 67 -1.0
67 66 -1.0
66 76 -1.0
76 66 -1.0
67 67 4.05
67 68 -1.0
68 67 -1.0
67 77 -1.0
77 67 -1.0
68 68 4.05
68 69 -1.0
69 68 -1.0
68 78 -1.0
78 68 -1.0
69 69 4.05
69 70 -1.0
70 69 -1.0
69 79 -1.0
79 69 -1.0
70 70 4.05
70 80 -1.0
80 70 -1.0
71 71 4.05
71 72 -1.0
72 71 -1.0
71 81 -1.0
81 71 -1.0
72 72 4.05
72 73 -1.0
73 72 -1.0
72 82 -1.0
82 72 -1.0
73 73 4.05
73 74 -1.0
74 73 -1.0
73 83 -1.0
83 73 -1.0
74 74 4.05
74 75 -1.0
75 74 -1.0
74 84 -1.0
84 74 -1.0
75 75 4.05
75 76 -1.0
76 75 -1.0
75 85 -1.0
85 75 -1.0
76 76 4.05
76 77 -1.0
77 76 -1.0
76 86 -1.0
86 76 -1.0
77 77 4.05
77 78 -1.0
78 77 -1.0
77 87 -1.0
87 77 -1.0
78 78 4.05
78 79 -1.0
79 78 -1.0
78 88 -1.0
88 78 -1.0
79 79 4.05
79 80 -1.0
80 79 -1.0
79 89 -1.0
89 79 -1.0
80 80 4.05
80 90 -1.0
90 80 -1.0
81 81 4.05
81 82 -1.0
82 81 -1.0
81 91 -1.0
91 81 -1.0
82 82 4.05
82 83 -1.0
83 82 -1.0
82 92 -1.0
92 82 -1.0
83 83 4.05
83 84 -1.0
84 83 -1.0
83 93 -1.0
93 83 -1.0
84 84 4.05
84 85 -1.0
85 84 -1.0
84 94 -1.0
94 84 -1.0
85 85 4.05
85 86 -1.0
86 85 -1.0
85 95 -1.0
95 85 -1.0
86 86 4.05
86 87 -1.0
87 86 -1.0
86 96 -1.0
96 86 -1.0
87 87 4.05
87 88 -1.0
88 87 -1.0
87 97 -1.0
97 87 -1.0
88 88 4.05
88 89 -1.0
89 88 -1.0
88 98 -1.0
98 88 -1.0
89 89 4.05
89 90 -1.0
90 89 -1.0
89 99 -1.0
99 89 -1.0
90 90 4.05
90 100 -1.0
100 90 -1.0
91 91 4.05
91 92 -1.0
92 91 -1.0
92 92 4.05
92 93 -1.0
93 92 -1.0
93 93 4.05
93 94 -1.0
94 93 -1.0
94 94 4.05
94 95 -1.0
95 94 -1.0
95 95 4.05
95 96 -1.0
96 95 -1.0
96 96 4.05
96 97 -1.0
97 96 -1.0
97 97 4.05
97 98 -1.0
98 97 -1.0
98 98 4.05
98 99 -1.0
99 98 -1.0
99 99 4.05
99 100 -1.0
100 99 -1.0
100 100 4.05
101 101 4.6
101 102 -1.0
102 101 -1.0
101 111 -1.0
111 101 -1.0
102 102 4.6
102 103 -1.0
103 102 -1.0
102 112 -1.0
112 102 -1.0
103 103 4.6
103 104 -1.0
104 103 -1.0
103 113 -1.0
113 103 -1.0
104 104 4.6
104 105 -1.0
105 104 -1.0
104 114 -1.0
114 104 -1.0
105 105 4.6
105 106 -1.0
106 105 -1.0
105 115 -1.0
115 105 -1.0
106 106 4.6
106 107 -1.0
107 106 -1.0
106 116 -1.0
116 106 -1.0
107 107 4.6
107 108 -1.0
108 107 -1.0
107 117 -1.0
117 107 -1.0
108 108 4.6
108 109 -1.0
109 108 -1.0
108 118 -1.0
118 108 -1.0
109 109 4.6
109 110 -1.0
110 109 -1.0
109 119 -1.0
119 109 -1.0
110 110 4.6
110 120 -1.0
120 110 -1.0
111 111 4.6
111 112 -1.0
112 111 -1.0
111 121 -1.0
121 111 -1.0
112 112 4.6
112 113 -1.0
113 112 -1.0
112 122 -1.0
122 112 -1.0
113 113 4.6
113 114 -1.0
114 113 -1.0
113 123 -1.0
123 113 -1.0
114 114 4.6
114 115 -1.0
115 114 -1.0
114 124 -1.0
124 114 -1.0
115 115 4.6
115 116 -1.0
116 115 -1.0
115 125 -1.0
125 115 -1.0
116 116 4.6
116 117 -1.0
117 116 -1.0
116 126 -1.0
126 116 -1.0
117 117 4.6
117 118 -1.0
118 117 -1.0
117 127 -1.0
127 117 -1.0
118 118 4.6
118 119 -1.0
119 118 -1.0
118 128 -1.0
128 118 -1.0
119 119 4.6
119 120 -1.0
120 119 -1.0
119 129 -1.0
129 119 -1.0
120 120 4.6
120 130 -1.0
130 120 -1.0
121 121 4.6
121 122 -1.0
122 121 -1.0
121 131 -1.0
131 121 -1.0
122 122 4.6
122 123 -1.0
123 122 -1.0
122 132 -1.0
132 122 -1.0
123 123 4.6
123 124 -1.0
124 123 -1.0
123 133 -1.0
133 123 -1.0
124 124 4.6
124 125 -1.0
125 124 -1.0
124 134 -1.0
134 124 -1.0
125 125 4.6
125 126 -1.0
126 125 -1.0
125 135 -1.0
135 125 -1.0
126 126 4.6
126 127 -1.0
127 126 -1.0
126 136 -1.0
136 126 -1.0
127 127 4.6
127 128 -1.0
128 127 -1.0
127 137 -1.0
137 127 -1.0
128 128 4.6
128 129 -1.0
129 128 -1.0
128 138 -1.0
138 128 -1.0
129 129 4.6
129 130 -1.0
130 129 -1.0
129 139 -1.0
139 129 -1.0
130 130 4.6
130 140 -1.0
140 130 -1.0
131 131 4.6
131 132 -1.0
132 131 -1.0
131 141 -1.0
141 131 -1.0
132 132 4.6
132 133 -1.0
133 132 -1.0
132 142 -1.0
142 132 -1.0
133 133 4.6
133 134 -1.0
134 133 -1.0
133 143 -1.0
143 133 -1.0
134 134 4.6
134 135 -1.0
135 134 -1.0
134 144 -1.0
144 134 -1.0
135 135 4.6
135 136 -1.0
136 135 -1.0
135 145 -1.0
145 135 -1.0
136 136 4.6
136 137 -1.0
137 136 -1.0
136 146 -1.0
146 136 -1.0
137 137 4.6
137 138 -1.0
138 137 -1.0
137 147 -1.0
147 137 -1.0
138 138 4.6
138 139 -1.0
139 138 -1.0
138 148 -1.0
148 138 -1.0
139 139 4.6
139 140 -1.0
140 139 -1.0
139 149 -1.0
149 139 -1.0
140 140 4.6
140 150 -1.0
150 140 -1.0
141 141 4.6
141 142 -1.0
142 141 -1.0
141 151 -1.0
151 141 -1.0
142 142 4.6
142 143 -1.0
143 142 -1.0
142 152 -1.0
152 142 -1.0
143 143 4.6
143 144 -1.0
144 143 -1.0
143 153 -1.0
153 143 -1.0
144 144 4.6
144 145 -1.0
145 144 -1.0
144 154 -1.0
154 144 -1.0
145 145 4.6
145 146 -1.0
146 145 -1.0
145 155 -1.0
155 145 -1.0
146 146 4.6
146 147 -1.0
147 146 -1.0
146 156 -1.0
156 146 -1.0
147 147 4.6
147 148 -1.0
148 147 -1.0
147 157 -1.0
157 147 -1.0
148 148 4.6
148 149 -1.0
149 148 -1.0
148 158 -1.0
158 148 -1.0
149 149 4.6
149 150 -1.0
150 149 -1.0
149 159 -1.0
159 149 -1.0
150 150 4.6
150 160 -1.0
160 150 -1.0
151 151 4.6
151 152 -1.0
152 151 -1.0
151 161 -1.0
161 151 -1.0
152 152 4.6
152 153 -1.0
153 152 -1.0
152 162 -1.0
162 152 -1.0
153 153 4.6
153 154 -1.0
154 153 -1.0
153 163 -1.0
163 153 -1.0
154 154 4.6
154 155 -1.0
155 154 -1.0
154 164 -1.0
164 154 -1.0
155 155 4.6
155 156 -1.0
156 155 -1.0
155 165 -1.0
165 155 -1.0
156 156 4.6
156 157 -1.0
157 156 -1.0
156 166 -1.0
166 156 -1.0
157 157 4.6
157 158 -1.0
158 157 -1.0
157 167 -1.0
167 157 -1.0
158 158 4.6
158 159 -1.0
159 158 -1.0
158 168 -1.0
168 158 -1.0
159 159 4.6
159 160 -1.0
160 159 -1.0
159 169 -1.0
169 159 -1.0
160 160 4.6
160 170 -1.0
170 160 -1.0
161 161 4.6
161 162 -1.0
162 161 -1.0
161 171 -1.0
171 161 -1.0
162 162 4.6
162 163 -1.0
163 162 -1.0
162 172 -1.0
172 162 -1.0
163 163 4.6
163 164 -1.0
164 163 -1.0
163 173 -1.0
173 163 -1.0
164 164 4.6
164 165 -1.0
165 164 -1.0
164 174 -1.0
174 164 -1.0
165 165 4.6
165 166 -1.0
166 165 -1.0
165 175 -1.0
175 165 -1.0
166 166 4.6
166 167 -1.0
167 166 -1.0
166 176 -1.0
176 166 -1.0
167 167 4.6
167 168 -1.0
168 167 -1.0
167 177 -1.0
177 167 -1.0
168 168 4.6
168 169 -1.0
169 168 -1.0
168 178 -1.0
178 168 -1.0
169 169 4.6
169 170 -1.0
170 169 -1.0
169 179 -1.0
179 169 -1.0
170 170 4.6
170 180 -1.0
180 170 -1.0
171 171 4.6
171 172 -1.0
172 171 -1.0
171 181 -1.0
181 171 -1.0
172 172 4.6
172 173 -1.0
173 172 -1.0
172 182 -1.0
182 172 -1.0
173 173 4.6
173 174 -1.0
174 173 -1.0
173 183 -1.0
183 173 -1.0
174 174 4.6
174 175 -1.0
175 174 -1.0
174 184 -1.0
184 174 -1.0
175 175 4.6
175 176 -1.0
176 175 -1.0
175 185 -1.0
185 175 -1.0
176 176 4.6
176 177 -1.0
177 176 -1.0
176 186 -1.0
186 176 -1.0
177 177 4.6
177 178 -1.0
178 177 -1.0
177 187 -1.0
187 177 -1.0
178 178 4.6
178 179 -1.0
179 178 -1.0
178 188 -1.0
188 178 -1.0
179 179 4.6
179 180 -1.0
180 179 -1.0
179 189 -1.0
189 179 -1.0
180 180 4.6
180 190 -1.0
190 180 -1.0
181 181 4.6
181 182 -1.0
182 181 -1.0
181 191 -1.0
191 181 -1.0
182 182 4.6
182 183 -1.0
183 182 -1.0
182 192 -1.0
192 182 -1.0
183 183 4.6
183 184 -1.0
184 183 -1.0
183 193 -1.0
193 183 -1.0
184 184 4.6
184 185 -1.0
185 184 -1.0
184 194 -1.0
194 184 -1.0
185 185 4.6
185 186 -1.0
186 185 -1.0
185 195 -1.0
195 185 -1.0
186 186 4.6
186 187 -1.0
187 186 -1.0
186 196 -1.0
196 186 -1.0
187 187 4.6
187 188 -1.0
188 187 -1.0
187 197 -1.0
197 187 -1.0
188 188 4.6
188 189 -1.0
189 188 -1.0
188 198 -1.0
198 188 -1.0
189 189 4.6
189 190 -1.0
190 189 -1.0
189 199 -1.0
199 189 -1.0
190 190 4.6
190 200 -1.0
200 190 -1.0
191 191 4.6
191 192 -1.0
192 191 -1.0
192 192 4.6
192 193 -1.0
193 192 -1.0
193 193 4.6
193 194 -1.0
194 193 -1.0
194 194 4.6
194 195 -1.0
195 194 -1.0
195 195 4.6
195 196 -1.0
196 195 -1.0
196 196 4.6
196 197 -1.0
197 196 -1.0
197 197 4.6
197 198 -1.0
198 197 -1.0
198 198 4.6
198 199 -1.0
199 198 -1.0
199 199 4.6
199 200 -1.0
200 199 -1.0
200 200 4.6
201 201 5.4
201 202 -1.0
202 201 -1.0
201 211 -1.0
211 201 -1.0
202 202 5.4
202 203 -1.0
203 202 -1.0
202 212 -1.0
212 202 -1.0
203 203 5.4
203 204 -1.0
204 203 -1.0
203 213 -1.0
213 203 -1.0
204 204 5.4
204 205 -1.0
205 204 -1.0
204 214 -1.0
214 204 -1.0
205 205 5.4
205 206 -1.0
206 205 -1.0
205 215 -1.0
215 205 -1.0
206 206 5.4
206 207 -1.0
207 206 -1.0
206 216 -1.0
216 206 -1.0
207 207 5.4
207 208 -1.0
208 207 -1.0
207 217 -1.0
217 207 -1.0
208 208 5.4
208 209 -1.0
209 208 -1.0
208 218 -1.0
218 208 -1.0
209 209 5.4
209 210 -1.0
210 209 -1.0
209 219 -1.0
219 209 -1.0
210 210 5.4
210 220 -1.0
220 210 -1.0
211 211 5.4
211 212 -1.0
212 211 -1.0
211 221 -1.0
221 211 -1.0
212 212 5.4
212 213 -1.0
213 212 -1.0
212 222 -1.0
222 212 -1.0
213 213 5.4
213 214 -1.0
214 213 -1.0
213 223 -1.0
223 213 -1.0
214 214 5.4
214 215 -1.0
215 214 -1.0
214 224 -1.0
224 214 -1.0
215 215 5.4
215 216 -1.0
216 215 -1.0
215 225 -1.0
225 215 -1.0
216 216 5.4
216 217 -1.0
217 216 -1.0
216 226 -1.0
226 216 -1.0
217 217 5.4
217 218 -1.0
218 217 -1.0
217 227 -1.0
227 217 -1.0
218 218 5.4
218 219 -1.0
219 218 -1.0
218 228 -1.0
228 218 -1.0
219 219 5.4
219 220 -1.0
220 219 -1.0
219 229 -1.0
229 219 -1.0
220 220 5.4
220 230 -1.0
230 220 -1.0
221 221 5.4
221 222 -1.0
222 221 -1.0
221 231 -1.0
231 221 -1.0
222 222 5.4
222 223 -1.0
223 222 -1.0
222 232 -1.0
232 222 -1.0
223 223 5.4
223 224 -1.0
224 223 -1.0
223 233 -1.0
233 223 -1.0
224 224 5.4
224 225 -1.0
225 224 -1.0
224 234 -1.0
234 224 -1.0
225 225 5.4
225 226 -1.0
226 225 -1.0
225 235 -1.0
235 225 -1.0
226 226 5.4
226 227 -1.0
227 226 -1.0
226 236 -1.0
236 226 -1.0
227 227 5.4
227 228 -1.0
228 227 -1.0
227 237 -1.0
237 227 -1.0
228 228 5.4
228 229 -1.0
229 228 -1.0
228 238 -1.0
238 228 -1.0
229 229 5.4
229 230 -1.0
230 229 -1.0
229 239 -1.0
239 229 -1.0
230 230 5.4
230 240 -1.0
240 230 -1.0
231 231 5.4
231 232 -1.0
232 231 -1.0
231 241 -1.0
241 231 -1.0
232 232 5.4
232 233 -1.0
233 232 -1.0
232 242 -1.0
242 232 -1.0
233 233 5.4
233 234 -1.0
234 233 -1.0
233 243 -1.0
243 233 -1.0
234 234 5.4
234 235 -1.0
235 234 -1.0
234 244 -1.0
244 234 -1.0
235 235 5.4
235 236 -1.0
236 235 -1.0
235 245 -1.0
245 235 -1.0
236 236 5.4
236 237 -1.0
237 236 -1.0
236 246 -1.0
246 236 -1.0
237 237 5.4
237 238 -1.0
238 237 -1.0
237 247 -1.0
247 237 -1.0
238 238 5.4
238 239 -1.0
239 238 -1.0
238 248 -1.0
248 238 -1.0
239 239 5.4
239 240 -1.0
240 239 -1.0
239 249 -1.0
249 239 -1.0
240 240 5.4
240 250 -1.0
250 240 -1.0
241 241 5.4
241 242 -1.0
242 241 -1.0
241 251 -1.0
251 241 -1.0
242 242 5.4
242 243 -1.0
243 242 -1.0
242 252 -1.0
252 242 -1.0
243 243 5.4
243 244 -1.0
244 243 -1.0
243 253 -1.0
253 243 -1.0
244 244 5.4
244 245 -1.0
245 244 -1.0
244 254 -1.0
254 244 -1.0
245 245 5.4
245 246 -1.0
246 245 -1.0
245 255 -1.0
255 245 -1.0
246 246 5.4
246 247 -1.0
247 246 -1.0
246 256 -1.0
256 246 -1.0
247 247 5.4
247 248 -1.0
248 247 -1.0
247 257 -1.0
257 247 -1.0
248 248 5.4
248 249 -1.0
249 248 -1.0
248 258 -1.0
258 248 -1.0
249 249 5.4
249 250 -1.0
250 249 -1.0
249 259 -1.0
259 249 -1.0
250 250 5.4
250 260 -1.0
260 250 -1.0
251 251 5.4
251 252 -1.0
252 251 -1.0
251 261 -1.0
261 251 -1.0
252 252 5.4
252 253 -1.0
253 252 -1.0
252 262 -1.0
262 252 -1.0
253 253 5.4
253 254 -1.0
254 253 -1.0
253 263 -1.0
263 253 -1.0
254 254 5.4
254 255 -1.0
255 254 -1.0
254 264 -1.0
264 254 -1.0
255 255 5.4
255 256 -1.0
256 255 -1.0
255 265 -1.0
265 255 -1.0
256 256 5.4
256 257 -1.0
257 256 -1.0
256 266 -1.0
266 256 -1.0
257 257 5.4
257 258 -1.0
258 257 -1.0
257 267 -1.0
267 257 -1.0
258 258 5.4
258 259 -1.0
259 258 -1.0
258 268 -1.0
268 258 -1.0
259 259 5.4
259 260 -1.0
260 259 -1.0
259 269 -1.0
269 259 -1.0
260 260 5.4
260 270 -1.0
270 260 -1.0
261 261 5.4
261 262 -1.0
262 261 -1.0
261 271 -1.0
271 261 -1.0
262 262 5.4
262 263 -1.0
263 262 -1.0
262 272 -1.0
272 262 -1.0
263 263 5.4
263 264 -1.0
264 263 -1.0
263 273 -1.0
273 263 -1.0
264 264 5.4
264 265 -1.0
265 264 -1.0
264 274 -1.0
274 264 -1.0
265 265 5.4
265 266 -1.0
266 265 -1.0
265 275 -1.0
275 265 -1.0
266 266 5.4
266 267 -1.0
267 266 -1.0
266 276 -1.0
276 266 -1.0
267 267 5.4
267 268 -1.0
268 267 -1.0
267 277 -1.0
277 267 -1.0
268 268 5.4
268 269 -1.0
269 268 -1.0
268 278 -1.0
278 268 -1.0
269 269 5.4
269 270 -1.0
270 269 -1.0
269 279 -1.0
279 269 -1.0
270 270 5.4
270 280 -1.0
280 270 -1.0
271 271 5.4
271 272 -1.0
272 271 -1.0
271 281 -1.0
281 271 -1.0
272 272 5.4
272 273 -1.0
273 272 -1.0
272 282 -1.0
282 272 -1.0
273 273 5.4
273 274 -1.0
274 273 -1.0
273 283 -1.0
283 273 -1.0
274 274 5.4
274 275 -1.0
275 274 -1.0
274 284 -1.0
284 274 -1.0
275 275 5.4
275 276 -1.0
276 275 -1.0
275 285 -1.0
285 275 -1.0
276 276 5.4
276 277 -1.0
277 276 -1.0
276 286 -1.0
286 276 -1.0
277 277 5.4
277 278 -1.0
278 277 -1.0
277 287 -1.0
287 277 -1.0
278 278 5.4
278 279 -1.0
279 278 -1.0
278 288 -1.0
288 278 -1.0
279 279 5.4
279 280 -1.0
280 279 -1.0
279 289 -1.0
289 279 -1.0
280 280 5.4
280 290 -1.0
290 280 -1.0
281 281 5.4
281 282 -1.0
282 281 -1.0
281 291 -1.0
291 281 -1.0
282 282 5.4
282 283 -1.0
283 282 -1.0
282 292 -1.0
292 282 -1.0
283 283 5.4
283 284 -1.0
284 283 -1.0
283 293 -1.0
293 283 -1.0
284 284 5.4
284 285 -1.0
285 284 -1.0
284 294 -1.0
294 284 -1.0
285 285 5.4
285 286 -1.0
286 285 -1.0
285 295 -1.0
295 285 -1.0
286 286 5.4
286 287 -1.0
287 286 -1.0
286 296 -1.0
296 286 -1.0
287 287 5.4
287 288 -1.0
288 287 -1.0
287 297 -1.0
297 287 -1.0
288 288 5.4
288 289 -1.0
289 288 -1.0
288 298 -1.0
298 288 -1.0
289 289 5.4
289 290 -1.0
290 289 -1.0
289 299 -1.0
299 289 -1.0
290 290 5.4
290 300 -1.0
300 290 -1.0
291 291 5.4
291 292 -1.0
292 291 -1.0
292 292 5.4
292 293 -1.0
293 292 -1.0
293 293 5.4
293 294 -1.0
294 293 -1.0
294 294 5.4
294 295 -1.0
295 294 -1.0
295 295 5.4
295 296 -1.0
296 295 -1.0
296 296 5.4
296 297 -1.0
297 296 -1.0
297 297 5.4
297 298 -1.0
298 297 -1.0
298 298 5.4
298 299 -1.0
299 298 -1.0
299 299 5.4
299 300 -1.0
300 299 -1.0
300 300 5.4
301 301 4.05
301 302 -1.0
302 301 -1.0
301 311 -1.0
311 301 -1.0
302 302 4.05
302 303 -1.0
303 302 -1.0
302 312 -1.0
312 302 -1.0
303 303 4.05
303 304 -1.0
304 303 -1.0
303 313 -1.0
313 303 -1.0
304 304 4.05
304 305 -1.0
305 304 -1.0
304 314 -1.0
314 304 -1.0
305 305 4.05
305 306 -1.0
306 305 -1.0
305 315 -1.0
315 305 -1.0
306 306 4.05
306 307 -1.0
307 306 -1.0
306 316 -1.0
316 306 -1.0
307 307 4.05
307 308 -1.0
308 307 -1.0
307 317 -1.0
317 307 -1.0
308 308 4.05
308 309 -1.0
309 308 -1.0
308 318 -1.0
318 308 -1.0
309 309 4.05
309 310 -1.0
310 309 -1.0
309 319 -1.0
319 309 -1.0
310 310 4.05
310 320 -1.0
320 310 -1.0
311 311 4.05
311 312 -1.0
312 311 -1.0
311 321 -1.0
321 311 -1.0
312 312 4.05
312 313 -1.0
313 312 -1.0
312 322 -1.0
322 312 -1.0
313 313 4.05
313 314 -1.0
314 313 -1.0
313 323 -1.0
323 313 -1.0
314 314 4.05
314 315 -1.0
315 314 -1.0
314 324 -1.0
324 314 -1.0
315 315 4.05
315 316 -1.0
316 315 -1.0
315 325 -1.0
325 315 -1.0
316 316 4.05
316 317 -1.0
317 316 -1.0
316 326 -1.0
326 316 -1.0
317 317 4.05
317 318 -1.0
318 317 -1.0
317 327 -1.0
327 317 -1.0
318 318 4.05
318 319 -1.0
319 318 -1.0
318 328 -1.0
328 318 -1.0
319 319 4.05
319 320 -1.0
320 319 -1.0
319 329 -1.0
329 319 -1.0
320 320 4.05
320 330 -1.0
330 320 -1.0
321 321 4.05
321 322 -1.0
322 321 -1.0
321 331 -1.0
331 321 -1.0
322 322 4.05
322 323 -1.0
323 322 -1.0
322 332 -1.0
332 322 -1.0
323 323 4.05
323 324 -1.0
324 323 -1.0
323 333 -1.0
333 323 -1.0
324 324 4.05
324 325 -1.0
325 324 -1.0
324 334 -1.0
334 324 -1.0
325 325 4.05
325 326 -1.0
326 325 -1.0
325 335 -1.0
335 325 -1.0
326 326 4.05
326 327 -1.0
327 326 -1.0
326 336 -1.0
336 326 -1.0
327 327 4.05
327 328 -1.0
328 327 -1.0
327 337 -1.0
337 327 -1.0
328 328 4.05
328 329 -1.0
329 328 -1.0
328 338 -1.0
338 328 -1.0
329 329 4.05
329 330 -1.0
330 329 -1.0
329 339 -1.0
339 329 -1.0
330 330 4.05
330 340 -1.0
340 330 -1.0
331 331 4.05
331 332 -1.0
332 331 -1.0
331 341 -1.0
341 331 -1.0
332 332 4.05
332 333 -1.0
333 332 -1.0
332 342 -1.0
342 332 -1.0
333 333 4.05
333 334 -1.0
334 333 -1.0
333 343 -1.0
343 333 -1.0
334 334 4.05
334 335 -1.0
335 334 -1.0
334 344 -1.0
344 334 -1.0
335 335 4.05
335 336 -1.0
336 335 -1.0
335 345 -1.0
345 335 -1.0
336 336 4.05
336 337 -1.0
337 336 -1.0
336 346 -1.0
346 336 -1.0
337 337 4.05
337 338 -1.0
338 337 -1.0
337 347 -1.0
347 337 -1.0
338 338 4.05
338 339 -1.0
339 338 -1.0
338 348 -1.0
348 338 -1.0
339 339 4.05
339 340 -1.0
340 339 -1.0
339 349 -1.0
349 339 -1.0
340 340 4.05
340 350 -1.0
350 340 -1.0
341 341 4.05
341 342 -1.0
342 341 -1.0
341 351 -1.0
351 341 -1.0
342 342 4.05
342 343 -1.0
343 342 -1.0
342 352 -1.0
352 342 -1.0
343 343 4.05
343 344 -1.0
344 343 -1.0
343 353 -1.0
353 343 -1.0
344 344 4.05
344 345 -1.0
345 344 -1.0
344 354 -1.0
354 344 -1.0
345 345 4.05
345 346 -1.0
346 345 -1.0
345 355 -1.0
355 345 -1.0
346 346 4.05
346 347 -1.0
347 346 -1.0
346 356 -1.0
356 346 -1.0
347 347 4.05
347 348 -1.0
348 347 -1.0
347 357 -1.0
357 347 -1.0
348 348 4.05
348 349 -1.0
349 348 -1.0
348 358 -1.0
358 348 -1.0
349 349 4.05
349 350 -1.0
350 349 -1.0
349 359 -1.0
359 349 -1.0
350 350 4.05
350 360 -1.0
360 350 -1.0
351 351 4.05
351 352 -1.0
352 351 -1.0
351 361 -1.0
361 351 -1.0
352 352 4.05
352 353 -1.0
353 352 -1.0
352 362 -1.0
362 352 -1.0
353 353 4.05
353 354 -1.0
354 353 -1.0
353 363 -1.0
363 353 -1.0
354 354 4.05
354 355 -1.0
355 354 -1.0
354 364 -1.0
364 354 -1.0
355 355 4.05
355 356 -1.0
356 355 -1.0
355 365 -1.0
365 355 -1.0
356 356 4.05
356 357 -1.0
357 356 -1.0
356 366 -1.0
366 356 -1.0
357 357 4.05
357 358 -1.0
358 357 -1.0
357 367 -1.0
367 357 -1.0
358 358 4.05
358 359 -1.0
359 358 -1.0
358 368 -1.0
368 358 -1.0
359 359 4.05
359 360 -1.0
360 359 -1.0
359 369 -1.0
369 359 -1.0
360 360 4.05
360 370 -1.0
370 360 -1.0
361 361 4.05
361 362 -1.0
362 361 -1.0
361 371 -1.0
371 361 -1.0
362 362 4.05
362 363 -1.0
363 362 -1.0
362 372 -1.0
372 362 -1.0
363 363 4.05
363 364 -1.0
364 363 -1.0
363 373 -1.0
373 363 -1.0
364 364 4.05
364 365 -1.0
365 364 -1.0
364 374 -1.0
374 364 -1.0
365 365 4.05
365 366 -1.0
366 365 -1.0
365 375 -1.0
375 365 -1.0
366 366 4.05
366 367 -1.0
367 366 -1.0
366 376 -1.0
376 366 -1.0
367 367 4.05
367 368 -1.0
368 367 -1.0
367 377 -1.0
377 367 -1.0
368 368 4.05
368 369 -1.0
369 368 -1.0
368 378 -1.0
378 368 -1.0
369 369 4.05
369 370 -1.0
370 369 -1.0
369 379 -1.0
379 369 -1.0
370 370 4.05
370 380 -1.0
380 370 -1.0
371 371 4.05
371 372 -1.0
372 371 -1.0
371 381 -1.0
381 371 -1.0
372 372 4.05
372 373 -1.0
373 372 -1.0
372 382 -1.0
382 372 -1.0
373 373 4.05
373 374 -1.0
374 373 -1.0
373 383 -1.0
383 373 -1.0
374 374 4.05
374 375 -1.0
375 374 -1.0
374 384 -1.0
384 374 -1.0
375 375 4.05
375 376 -1.0
376 375 -1.0
375 385 -1.0
385 375 -1.0
376 376 4.05
376 377 -1.0
377 376 -1.0
376 386 -1.0
386 376 -1.0
377 377 4.05
377 378 -1.0
378 377 -1.0
377 387 -1.0
387 377 -1.0
378 378 4.05
378 379 -1.0
379 378 -1.0
378 388 -1.0
388 378 -1.0
379 379 4.05
379 380 -1.0
380 379 -1.0
379 389 -1.0
389 379 -1.0
380 380 4.05
380 390 -1.0
390 380 -1.0
381 381 4.05
381 382 -1.0
382 381 -1.0
381 391 -1.0
391 381 -1.0
382 382 4.05
382 383 -1.0
383 382 -1.0
382 392 -1.0
392 382 -1.0
383 383 4.05
383 384 -1.0
384 383 -1.0
383 393 -1.0
393 383 -1.0
384 384 4.05
384 385 -1.0
385 384 -1.0
384 394 -1.0
394 384 -1.0
385 385 4.05
385 386 -1.0
386 385 -1.0
385 395 -1.0
395 385 -1.0
386 386 4.05
386 387 -1.0
387 386 -1.0
386 396 -1.0
396 386 -1.0
387 387 4.05
387 388 -1.0
388 387 -1.0
387 397 -1.0
397 387 -1.0
388 388 4.05
388 389 -1.0
389 388 -1.0
388 398 -1.0
398 388 -1.0
389 389 4.05
389 390 -1.0
390 389 -1.0
389 399 -1.0
399 389 -1.0
390 390 4.05
390 400 -1.0
400 390 -1.0
391 391 4.05
391 392 -1.0
392 391 -1.0
392 392 4.05
392 393 -1.0
393 392 -1.0
393 393 4.05
393 394 -1.0
394 393 -1.0
394 394 4.05
394 395 -1.0
395 394 -1.0
395 395 4.05
395 396 -1.0
396 395 -1.0
396 396 4.05
396 397 -1.0
397 396 -1.0
397 397 4.05
397 398 -1.0
398 397 -1.0
398 398 4.05
398 399 -1.0
399 398 -1.0
399 399 4.05
399 400 -1.0
400 399 -1.0
400 400 4.05
401 401 4.6
401 402 -1.0
402 401 -1.0
401 411 -1.0
411 401 -1.0
402 402 4.6
402 403 -1.0
403 402 -1.0
402 412 -1.0
412 402 -1.0
403 403 4.6
403 404 -1.0
404 403 -1.0
403 413 -1.0
413 403 -1.0
404 404 4.6
404 405 -1.0
405 404 -1.0
404 414 -1.0
414 404 -1.0
405 405 4.6
405 406 -1.0
406 405 -1.0
405 415 -1.0
415 405 -1.0
406 406 4.6
406 407 -1.0
407 406 -1.0
406 416 -1.0
416 406 -1.0
407 407 4.6
407 408 -1.0
408 407 -1.0
407 417 -1.0
417 407 -1.0
408 408 4.6
408 409 -1.0
409 408 -1.0
408 418 -1.0
418 408 -1.0
409 409 4.6
409 410 -1.0
410 409 -1.0
409 419 -1.0
419 409 -1.0
410 410 4.6
410 420 -1.0
420 410 -1.0
411 411 4.6
411 412 -1.0
412 411 -1.0
411 421 -1.0
421 411 -1.0
412 412 4.6
412 413 -1.0
413 412 -1.0
412 422 -1.0
422 412 -1.0
413 413 4.6
413 414 -1.0
414 413 -1.0
413 423 -1.0
423 413 -1.0
414 414 4.6
414 415 -1.0
415 414 -1.0
414 424 -1.0
424 414 -1.0
415 415 4.6
415 416 -1.0
416 415 -1.0
415 425 -1.0
425 415 -1.0
416 416 4.6
416 417 -1.0
417 416 -1.0
416 426 -1.0
426 416 -1.0
417 417 4.6
417 418 -1.0
418 417 -1.0
417 427 -1.0
427 417 -1.0
418 418 4.6
418 419 -1.0
419 418 -1.0
418 428 -1.0
428 418 -1.0
419 419 4.6
419 420 -1.0
420 419 -1.0
419 429 -1.0
429 419 -1.0
420 420 4.6
420 430 -1.0
430 420 -1.0
421 421 4.6
421 422 -1.0
422 421 -1.0
421 431 -1.0
431 421 -1.0
422 422 4.6
422 423 -1.0
423 422 -1.0
422 432 -1.0
432 422 -1.0
423 423 4.6
423 424 -1.0
424 423 -1.0
423 433 -1.0
433 423 -1.0
424 424 4.6
424 425 -1.0
425 424 -1.0
424 434 -1.0
434 424 -1.0
425 425 4.6
425 426 -1.0
426 425 -1.0
425 435 -1.0
435 425 -1.0
426 426 4.6
426 427 -1.0
427 426 -1.0
426 436 -1.0
436 426 -1.0
427 427 4.6
427 428 -1.0
428 427 -1.0
427 437 -1.0
437 427 -1.0
428 428 4.6
428 429 -1.0
429 428 -1.0
428 438 -1.0
438 428 -1.0
429 429 4.6
429 430 -1.0
430 429 -1.0
429 439 -1.0
439 429 -1.0
430 430 4.6
430 440 -1.0
440 430 -1.0
431 431 4.6
431 432 -1.0
432 431 -1.0
431 441 -1.0
441 431 -1.0
432 432 4.6
432 433 -1.0
433 432 -1.0
432 442 -1.0
442 432 -1.0
433 433 4.6
433 434 -1.0
434 433 -1.0
433 443 -1.0
443 433 -1.0
434 434 4.6
434 435 -1.0
435 434 -1.0
434 444 -1.0
444 434 -1.0
435 435 4.6
435 436 -1.0
436 435 -1.0
435 445 -1.0
445 435 -1.0
436 436 4.6
436 437 -1.0
437 436 -1.0
436 446 -1.0
446 436 -1.0
437 437 4.6
437 438 -1.0
438 437 -1.0
437 447 -1.0
447 437 -1.0
438 438 4.6
438 439 -1.0
439 438 -1.0
438 448 -1.0
448 438 -1.0
439 439 4.6
439 440 -1.0
440 439 -1.0
439 449 -1.0
449 439 -1.0
440 440 4.6
440 450 -1.0
450 440 -1.0
441 441 4.6
441 442 -1.0
442 441 -1.0
441 451 -1.0
451 441 -1.0
442 442 4.6
442 443 -1.0
443 442 -1.0
442 452 -1.0
452 442 -1.0
443 443 4.6
443 444 -1.0
444 443 -1.0
443 453 -1.0
453 443 -1.0
444 444 4.6
444 445 -1.0
445 444 -1.0
444 454 -1.0
454 444 -1.0
445 445 4.6
445 446 -1.0
446 445 -1.0
445 455 -1.0
455 445 -1.0
446 446 4.6
446 447 -1.0
447 446 -1.0
446 456 -1.0
456 446 -1.0
447 447 4.6
447 448 -1.0
448 447 -1.0
447 457 -1.0
457 447 -1.0
448 448 4.6
448 449 -1.0
449 448 -1.0
448 458 -1.0
458 448 -1.0
449 449 4.6
449 450 -1.0
450 449 -1.0
449 459 -1.0
459 449 -1.0
450 450 4.6
450 460 -1.0
460 450 -1.0
451 451 4.6
451 452 -1.0
452 451 -1.0
451 461 -1.0
461 451 -1.0
452 452 4.6
452 453 -1.0
453 452 -1.0
452 462 -1.0
462 452 -1.0
453 453 4.6
453 454 -1.0
454 453 -1.0
453 463 -1.0
463 453 -1.0
454 454 4.6
454 455 -1.0
455 454 -1.0
454 464 -1.0
464 454 -1.0
455 455 4.6
455 456 -1.0
456 455 -1.0
455 465 -1.0
465 455 -1.0
456 456 4.6
456 457 -1.0
457 456 -1.0
456 466 -1.0
466 456 -1.0
457 457 4.6
457 458 -1.0
458 457 -1.0
457 467 -1.0
467 457 -1.0
458 458 4.6
458 459 -1.0
459 458 -1.0
458 468 -1.0
468 458 -1.0
459 459 4.6
459 460 -1.0
460 459 -1.0
459 469 -1.0
469 459 -1.0
460 460 4.6
460 470 -1.0
470 460 -1.0
461 461 4.6
461 462 -1.0
462 461 -1.0
461 471 -1.0
471 461 -1.0
462 462 4.6
462 463 -1.0
463 462 -1.0
462 472 -1.0
472 462 -1.0
463 463 4.6
463 464 -1.0
464 463 -1.0
463 473 -1.0
473 463 -1.0
464 464 4.6
464 465 -1.0
465 464 -1.0
464 474 -1.0
474 464 -1.0
465 465 4.6
465 466 -1.0
466 465 -1.0
465 475 -1.0
475 465 -1.0
466 466 4.6
466 467 -1.0
467 466 -1.0
466 476 -1.0
476 466 -1.0
467 467 4.6
467 468 -1.0
468 467 -1.0
467 477 -1.0
477 467 -1.0
468 468 4.6
468 469 -1.0
469 468 -1.0
468 478 -1.0
478 468 -1.0
469 469 4.6
469 470 -1.0
470 469 -1.0
469 479 -1.0
479 469 -1.0
470 470 4.6
470 480 -1.0
480 470 -1.0
471 471 4.6
471 472 -1.0
472 471 -1.0
471 481 -1.0
481 471 -1.0
472 472 4.6
472 473 -1.0
473 472 -1.0
472 482 -1.0
482 472 -1.0
473 473 4.6
473 474 -1.0
474 473 -1.0
473 483 -1.0
483 473 -1.0
474 474 4.6
474 475 -1.0
475 474 -1.0
474 484 -1.0
484 474 -1.0
475 475 4.6
475 476 -1.0
476 475 -1.0
475 485 -1.0
485 475 -1.0
476 476 4.6
476 477 -1.0
477 476 -1.0
476 486 -1.0
486 476 -1.0
477 477 4.6
477 478 -1.0
478 477 -1.0
477 487 -1.0
487 477 -1.0
478 478 4.6
478 479 -1.0
479 478 -1.0
478 488 -1.0
488 478 -1.0
479 479 4.6
479 480 -1.0
480 479 -1.0
479 489 -1.0
489 479 -1.0
480 480 4.6
480 490 -1.0
490 480 -1.0
481 481 4.6
481 482 -1.0
482 481 -1.0
481 491 -1.0
491 481 -1.0
482 482 4.6
482 483 -1.0
483 482 -1.0
482 492 -1.0
492 482 -1.0
483 483 4.6
483 484 -1.0
484 483 -1.0
483 493 -1.0
493 483 -1.0
484 484 4.6
484 485 -1.0
485 484 -1.0
484 494 -1.0
494 484 -1.0
485 485 4.6
485 486 -1.0
486 485 -1.0
485 495 -1.0
495 485 -1.0
486 486 4.6
486 487 -1.0
487 486 -1.0
486 496 -1.0
496 486 -1.0
487 487 4.6
487 488 -1.0
488 487 -1.0
487 497 -1.0
497 487 -1.0
488 488 4.6
488 489 -1.0
489 488 -1.0
488 498 -1.0
498 488 -1.0
489 489 4.6
489 490 -1.0
490 489 -1.0
489 499 -1.0
499 489 -1.0
490 490 4.6
490 500 -1.0
500 490 -1.0
491 491 4.6
491 492 -1.0
492 491 -1.0
492 492 4.6
492 493 -1.0
493 492 -1.0
493 493 4.6
493 494 -1.0
494 493 -1.0
494 494 4.6
494 495 -1.0
495 494 -1.0
495 495 4.6
495 496 -1.0
496 495 -1.0
496 496 4.6
496 497 -1.0
497 496 -1.0
497 497 4.6
497 498 -1.0
498 497 -1.0
498 498 4.6
498 499 -1.0
499 498 -1.0
499 499 4.6
499 500 -1.0
500 499 -1.0
500 500 4.6
501 501 5.4
501 502 -1.0
502 501 -1.0
501 511 -1.0
511 501 -1.0
502 502 5.4
502 503 -1.0
503 502 -1.0
502 512 -1.0
512 502 -1.0
503 503 5.4
503 504 -1.0
504 503 -1.0
503 513 -1.0
513 503 -1.0
504 504 5.4
504 505 -1.0
505 504 -1.0
504 514 -1.0
514 504 -1.0
505 505 5.4
505 506 -1.0
506 505 -1.0
505 515 -1.0
515 505 -1.0
506 506 5.4
506 507 -1.0
507 506 -1.0
506 516 -1.0
516 506 -1.0
507 507 5.4
507 508 -1.0
508 507 -1.0
507 517 -1.0
517 507 -1.0
508 508 5.4
508 509 -1.0
509 508 -1.0
508 518 -1.0
518 508 -1.0
509 509 5.4
509 510 -1.0
510 509 -1.0
509 519 -1.0
519 509 -1.0
510 510 5.4
510 520 -1.0
520 510 -1.0
511 511 5.4
511 512 -1.0
512 511 -1.0
511 521 -1.0
521 511 -1.0
512 512 5.4
512 513 -1.0
513 512 -1.0
512 522 -1.0
522 512 -1.0
513 513 5.4
513 514 -1.0
514 513 -1.0
513 523 -1.0
523 513 -1.0
514 514 5.4
514 515 -1.0
515 514 -1.0
514 524 -1.0
524 514 -1.0
515 515 5.4
515 516 -1.0
516 515 -1.0
515 525 -1.0
525 515 -1.0
516 516 5.4
516 517 -1.0
517 516 -1.0
516 526 -1.0
526 516 -1.0
517 517 5.4
517 518 -1.0
518 517 -1.0
517 527 -1.0
527 517 -1.0
518 518 5.4
518 519 -1.0
519 518 -1.0
518 528 -1.0
528 518 -1.0
519 519 5.4
519 520 -1.0
520 519 -1.0
519 529 -1.0
529 519 -1.0
520 520 5.4
520 530 -1.0
530 520 -1.0
521 521 5.4
521 522 -1.0
522 521 -1.0
521 531 -1.0
531 521 -1.0
522 522 5.4
522 523 -1.0
523 522 -1.0
522 532 -1.0
532 522 -1.0
523 523 5.4
523 524 -1.0
524 523 -1.0
523 533 -1.0
533 523 -1.0
524 524 5.4
524 525 -1.0
525 524 -1.0
524 534 -1.0
534 524 -1.0
525 525 5.4
525 526 -1.0
526 525 -1.0
525 535 -1.0
535 525 -1.0
526 526 5.4
526 527 -1.0
527 526 -1.0
526 536 -1.0
536 526 -1.0
527 527 5.4
527 528 -1.0
528 527 -1.0
527 537 -1.0
537 527 -1.0
528 528 5.4
528 529 -1.0
529 528 -1.0
528 538 -1.0
538 528 -1.0
529 529 5.4
529 530 -1.0
530 529 -1.0
529 539 -1.0
539 529 -1.0
530 530 5.4
530 540 -1.0
540 530 -1.0
531 531 5.4
531 532 -1.0
532 531 -1.0
531 541 -1.0
541 531 -1.0
532 532 5.4
532 533 -1.0
533 532 -1.0
532 542 -1.0
542 532 -1.0
533 533 5.4
533 534 -1.0
534 533 -1.0
533 543 -1.0
543 533 -1.0
534 534 5.4
534 535 -1.0
535 534 -1.0
534 544 -1.0
544 534 -1.0
535 535 5.4
535 536 -1.0
536 535 -1.0
535 545 -1.0
545 535 -1.0
536 536 5.4
536 537 -1.0
537 536 -1.0
536 546 -1.0
546 536 -1.0
537 537 5.4
537 538 -1.0
538 537 -1.0
537 547 -1.0
547 537 -1.0
538 538 5.4
538 539 -1.0
539 538 -1.0
538 548 -1.0
548 538 -1.0
539 539 5.4
539 540 -1.0
540 539 -1.0
539 549 -1.0
549 539 -1.0
540 540 5.4
540 550 -1.0
550 540 -1.0
541 541 5.4
541 542 -1.0
542 541 -1.0
541 551 -1.0
551 541 -1.0
542 542 5.4
542 543 -1.0
543 542 -1.0
542 552 -1.0
552 542 -1.0
543 543 5.4
543 544 -1.0
544 543 -1.0
543 553 -1.0
553 543 -1.0
544 544 5.4
544 545 -1.0
545 544 -1.0
544 554 -1.0
554 544 -1.0
545 545 5.4
545 546 -1.0
546 545 -1.0
545 555 -1.0
555 545 -1.0
546 546 5.4
546 547 -1.0
547 546 -1.0
546 556 -1.0
556 546 -1.0
547 547 5.4
547 548 -1.0
548 547 -1.0
547 557 -1.0
557 547 -1.0
548 548 5.4
548 549 -1.0
549 548 -1.0
548 558 -1.0
558 548 -1.0
549 549 5.4
549 550 -1.0
550 549 -1.0
549 559 -1.0
559 549 -1.0
550 550 5.4
550 560 -1.0
560 550 -1.0
551 551 5.4
551 552 -1.0
552 551 -1.0
551 561 -1.0
561 551 -1.0
552 552 5.4
552 553 -1.0
553 552 -1.0
552 562 -1.0
562 552 -1.0
553 553 5.4
553 554 -1.0
554 553 -1.0
553 563 -1.0
563 553 -1.0
554 554 5.4
554 555 -1.0
555 554 -1.0
554 564 -1.0
564 554 -1.0
555 555 5.4
555 556 -1.0
556 555 -1.0
555 565 -1.0
565 555 -1.0
556 556 5.4
556 557 -1.0
557 556 -1.0
556 566 -1.0
566 556 -1.0
557 557 5.4
557 558 -1.0
558 557 -1.0
557 567 -1.0
567 557 -1.0
558 558 5.4
558 559 -1.0
559 558 -1.0
558 568 -1.0
568 558 -1.0
559 559 5.4
559 560 -1.0
560 559 -1.0
559 569 -1.0
569 559 -1.0
560 560 5.4
560 570 -1.0
570 560 -1.0
561 561 5.4
561 562 -1.0
562 561 -1.0
561 571 -1.0
571 561 -1.0
562 562 5.4
562 563 -1.0
563 562 -1.0
562 572 -1.0
572 562 -1.0
563 563 5.4
563 564 -1.0
564 563 -1.0
563 573 -1.0
573 563 -1.0
564 564 5.4
564 565 -1.0
565 564 -1.0
564 574 -1.0
574 564 -1.0
565 565 5.4
565 566 -1.0
566 565 -1.0
565 575 -1.0
575 565 -1.0
566 566 5.4
566 567 -1.0
567 566 -1.0
566 576 -1.0
576 566 -1.0
567 567 5.4
567 568 -1.0
568 567 -1.0
567 577 -1.0
577 567 -1.0
568 568 5.4
568 569 -1.0
569 568 -1.0
568 578 -1.0
578 568 -1.0
569 569 5.4
569 570 -1.0
570 569 -1.0
569 579 -1.0
579 569 -1.0
570 570 5.4
570 580 -1.0
580 570 -1.0
571 571 5.4
571 572 -1.0
572 571 -1.0
571 581 -1.0
581 571 -1.0
572 572 5.4
572 573 -1.0
573 572 -1.0
572 582 -1.0
582 572 -1.0
573 573 5.4
573 574 -1.0
574 573 -1.0
573 583 -1.0
583 573 -1.0
574 574 5.4
574 575 -1.0
575 574 -1.0
574 584 -1.0
584 574 -1.0
575 575 5.4
575 576 -1.0
576 575 -1.0
575 585 -1.0
585 575 -1.0
576 576 5.4
576 577 -1.0
577 576 -1.0
576 586 -1.0
586 576 -1.0
577 577 5.4
577 578 -1.0
578 577 -1.0
577 587 -1.0
587 577 -1.0
578 578 5.4
578 579 -1.0
579 578 -1.0
578 588 -1.0
588 578 -1.0
579 579 5.4
579 580 -1.0
580 579 -1.0
579 589 -1.0
589 579 -1.0
580 580 5.4
580 590 -1.0
590 580 -1.0
581 581 5.4
581 582 -1.0
582 581 -1.0
581 591 -1.0
591 581 -1.0
582 582 5.4
582 583 -1.0
583 582 -1.0
582 592 -1.0
592 582 -1.0
583 583 5.4
583 584 -1.0
584 583 -1.0
583 593 -1.0
593 583 -1.0
584 584 5.4
584 585 -1.0
585 584 -1.0
584 594 -1.0
594 584 -1.0
585 585 5.4
585 586 -1.0
586 585 -1.0
585 595 -1.0
595 585 -1.0
586 586 5.4
586 587 -1.0
587 586 -1.0
586 596 -1.0
596 586 -1.0
587 587 5.4
587 588 -1.0
588 587 -1.0
587 597 -1.0
597 587 -1.0
588 588 5.4
588 589 -1.0
589 588 -1.0
588 598 -1.0
598 588 -1.0
589 589 5.4
589 590 -1.0
590 589 -1.0
589 599 -1.0
599 589 -1.0
590 590 5.4
590 600 -1.0
600 590 -1.0
591 591 5.4
591 592 -1.0
592 591 -1.0
592 592 5.4
592 593 -1.0
593 592 -1.0
593 593 5.4
593 594 -1.0
594 593 -1.0
594 594 5.4
594 595 -1.0
595 594 -1.0
595 595 5.4
595 596 -1.0
596 595 -1.0
596 596 5.4
596 597 -1.0
597 596 -1.0
597 597 5.4
597 598 -1.0
598 597 -1.0
598 598 5.4
598 599 -1.0
599 598 -1.0
599 599 5.4
599 600 -1.0
600 599 -1.0
600 600 5.4
